NAME photosynthesis_srl_ilp
* Max problem is converted into Min one
ROWS
 N  OBJ
 L  constraint1_1120
 L  constraint1_3900
 L  constraint1_3902
 L  constraint1_3903
 L  constraint1_2650
 L  constraint1_4962
 L  constraint1_4961
 L  constraint1_4964
 L  constraint1_4963
 L  constraint1_2531
 L  constraint1_2532
 L  constraint1_2530
 L  constraint1_1650
 L  constraint1_2020
 L  constraint1_4010
 L  constraint1_110
 L  constraint1_4740
 L  constraint1_4743
 L  constraint1_4742
 L  constraint1_2423
 L  constraint1_2424
 L  constraint1_2422
 L  constraint1_2421
 L  constraint1_2425
 L  constraint1_1210
 L  constraint1_1211
 L  constraint1_5550
 L  constraint2_1120
 L  constraint2_1121
 L  constraint2_1122
 L  constraint2_1123
 L  constraint2_3900
 L  constraint2_3901
 L  constraint2_3902
 L  constraint2_3903
 L  constraint2_2650
 L  constraint2_2651
 L  constraint2_2652
 L  constraint2_2653
 L  constraint2_4960
 L  constraint2_4961
 L  constraint2_4962
 L  constraint2_4963
 L  constraint2_2530
 L  constraint2_2531
 L  constraint2_2532
 L  constraint2_2533
 L  constraint2_1650
 L  constraint2_1651
 L  constraint2_1652
 L  constraint2_1653
 L  constraint2_2020
 L  constraint2_2021
 L  constraint2_2022
 L  constraint2_2023
 L  constraint2_1930
 L  constraint2_1931
 L  constraint2_1932
 L  constraint2_1933
 L  constraint2_4010
 L  constraint2_4011
 L  constraint2_4012
 L  constraint2_4013
 L  constraint2_110
 L  constraint2_111
 L  constraint2_112
 L  constraint2_113
 L  constraint2_4740
 L  constraint2_4741
 L  constraint2_4742
 L  constraint2_4743
 L  constraint2_2420
 L  constraint2_2421
 L  constraint2_2422
 L  constraint2_2423
 L  constraint2_1210
 L  constraint2_1211
 L  constraint2_1212
 L  constraint2_1213
 L  constraint2_5550
 L  constraint2_5551
 L  constraint2_5552
 L  constraint2_5553
 L  constraint2_220
 L  constraint2_221
 L  constraint2_222
 L  constraint2_223
COLUMNS
    MARKER    'MARKER'                 'INTORG'
    Z_112_0_0  OBJ       -5.9653116468755469e-04
    Z_112_0_0  constraint1_1120  1
    Z_112_0_0  constraint2_1120  1
    Z_112_0_1  OBJ       -6.5210104180005706e-03
    Z_112_0_1  constraint1_1120  1
    Z_112_0_1  constraint2_1121  1
    Z_112_0_2  OBJ       -8.7315035605632263e-01
    Z_112_0_2  constraint1_1120  1
    Z_112_0_2  constraint2_1122  1
    Z_112_0_3  OBJ       -1.1828956707896771e-02
    Z_112_0_3  constraint1_1120  1
    Z_112_0_3  constraint2_1123  1
    Z_112_0_4  OBJ       -7.9031456530925717e-03
    Z_112_0_4  constraint1_1120  1
    Z_390_0_0  OBJ       -7.2892351051139263e-04
    Z_390_0_0  constraint1_3900  1
    Z_390_0_0  constraint2_3900  1
    Z_390_0_1  OBJ       -4.2690526652185493e-03
    Z_390_0_1  constraint1_3900  1
    Z_390_0_1  constraint2_3901  1
    Z_390_0_2  OBJ       -8.7768940351652336e-01
    Z_390_0_2  constraint1_3900  1
    Z_390_0_2  constraint2_3902  1
    Z_390_0_3  OBJ       -9.8226062276777597e-03
    Z_390_0_3  constraint1_3900  1
    Z_390_0_3  constraint2_3903  1
    Z_390_0_4  OBJ       -7.4900140800689607e-03
    Z_390_0_4  constraint1_3900  1
    Z_390_2_0  OBJ       -1.7365939430188260e-02
    Z_390_2_0  constraint1_3902  1
    Z_390_2_0  constraint2_3900  1
    Z_390_2_1  OBJ       -2.2927058877390445e-02
    Z_390_2_1  constraint1_3902  1
    Z_390_2_1  constraint2_3901  1
    Z_390_2_2  OBJ       -1.3827394206370677e-02
    Z_390_2_2  constraint1_3902  1
    Z_390_2_2  constraint2_3902  1
    Z_390_2_3  OBJ       -7.9908104846847183e-01
    Z_390_2_3  constraint1_3902  1
    Z_390_2_3  constraint2_3903  1
    Z_390_2_4  OBJ       -4.6798559017578581e-02
    Z_390_2_4  constraint1_3902  1
    Z_390_3_0  OBJ       -2.2482159837601581e-01
    Z_390_3_0  constraint1_3903  1
    Z_390_3_0  constraint2_3900  1
    Z_390_3_1  OBJ       -1.0925854893080679e-01
    Z_390_3_1  constraint1_3903  1
    Z_390_3_1  constraint2_3901  1
    Z_390_3_2  OBJ       -1.3429981630253721e-02
    Z_390_3_2  constraint1_3903  1
    Z_390_3_2  constraint2_3902  1
    Z_390_3_3  OBJ       -4.3517333291068683e-01
    Z_390_3_3  constraint1_3903  1
    Z_390_3_3  constraint2_3903  1
    Z_390_3_4  OBJ       -1.1731653815223697e-01
    Z_390_3_4  constraint1_3903  1
    Z_265_0_0  OBJ       -4.0997824888861160e-02
    Z_265_0_0  constraint1_2650  1
    Z_265_0_0  constraint2_2650  1
    Z_265_0_1  OBJ       -3.4653420781323752e-01
    Z_265_0_1  constraint1_2650  1
    Z_265_0_1  constraint2_2651  1
    Z_265_0_2  OBJ       -1.4372336487299010e-02
    Z_265_0_2  constraint1_2650  1
    Z_265_0_2  constraint2_2652  1
    Z_265_0_3  OBJ       -1.1684023061951582e-01
    Z_265_0_3  constraint1_2650  1
    Z_265_0_3  constraint2_2653  1
    Z_265_0_4  OBJ       -3.8125540019108656e-01
    Z_265_0_4  constraint1_2650  1
    Z_496_2_0  OBJ       -7.9372753853082425e-03
    Z_496_2_0  constraint1_4962  1
    Z_496_2_0  constraint2_4960  1
    Z_496_2_1  OBJ       -5.7596913504860603e-03
    Z_496_2_1  constraint1_4962  1
    Z_496_2_1  constraint2_4961  1
    Z_496_2_2  OBJ       -8.2676683052634644e-03
    Z_496_2_2  constraint1_4962  1
    Z_496_2_2  constraint2_4962  1
    Z_496_2_3  OBJ       -9.5119557062750028e-03
    Z_496_2_3  constraint1_4962  1
    Z_496_2_3  constraint2_4963  1
    Z_496_2_4  OBJ       -8.6852340925266724e-01
    Z_496_2_4  constraint1_4962  1
    Z_496_1_0  OBJ       -1.3531462747897228e-03
    Z_496_1_0  constraint1_4961  1
    Z_496_1_0  constraint2_4960  1
    Z_496_1_1  OBJ       -9.4990589557639182e-04
    Z_496_1_1  constraint1_4961  1
    Z_496_1_1  constraint2_4961  1
    Z_496_1_2  OBJ       -5.6880974791770639e-03
    Z_496_1_2  constraint1_4961  1
    Z_496_1_2  constraint2_4962  1
    Z_496_1_3  OBJ       -8.6522121588675331e-03
    Z_496_1_3  constraint1_4961  1
    Z_496_1_3  constraint2_4963  1
    Z_496_1_4  OBJ       -8.8335663819158927e-01
    Z_496_1_4  constraint1_4961  1
    Z_496_4_0  OBJ       -1.4297299551704737e-01
    Z_496_4_0  constraint1_4964  1
    Z_496_4_0  constraint2_4960  1
    Z_496_4_1  OBJ       -2.6494609764288080e-02
    Z_496_4_1  constraint1_4964  1
    Z_496_4_1  constraint2_4961  1
    Z_496_4_2  OBJ       -6.2067066198899590e-03
    Z_496_4_2  constraint1_4964  1
    Z_496_4_2  constraint2_4962  1
    Z_496_4_3  OBJ       -1.6884802894054786e-02
    Z_496_4_3  constraint1_4964  1
    Z_496_4_3  constraint2_4963  1
    Z_496_4_4  OBJ       -7.0744088520471970e-01
    Z_496_4_4  constraint1_4964  1
    Z_496_3_0  OBJ       -2.8129586322180340e-03
    Z_496_3_0  constraint1_4963  1
    Z_496_3_0  constraint2_4960  1
    Z_496_3_1  OBJ       -2.1505986869585166e-02
    Z_496_3_1  constraint1_4963  1
    Z_496_3_1  constraint2_4961  1
    Z_496_3_2  OBJ       -1.1027933496531139e-01
    Z_496_3_2  constraint1_4963  1
    Z_496_3_2  constraint2_4962  1
    Z_496_3_3  OBJ       -2.1817459480146843e-02
    Z_496_3_3  constraint1_4963  1
    Z_496_3_3  constraint2_4963  1
    Z_496_3_4  OBJ       -7.4358426005273859e-01
    Z_496_3_4  constraint1_4963  1
    Z_253_1_0  OBJ       -3.5543757736043589e-02
    Z_253_1_0  constraint1_2531  1
    Z_253_1_0  constraint2_2530  1
    Z_253_1_1  OBJ       -2.6805321884205775e-02
    Z_253_1_1  constraint1_2531  1
    Z_253_1_1  constraint2_2531  1
    Z_253_1_2  OBJ       -4.3613365488872090e-02
    Z_253_1_2  constraint1_2531  1
    Z_253_1_2  constraint2_2532  1
    Z_253_1_3  OBJ       -1.3750331760739175e-03
    Z_253_1_3  constraint1_2531  1
    Z_253_1_3  constraint2_2533  1
    Z_253_1_4  OBJ       -7.9266252171480467e-01
    Z_253_1_4  constraint1_2531  1
    Z_253_2_0  OBJ       -3.1516113452401216e-03
    Z_253_2_0  constraint1_2532  1
    Z_253_2_0  constraint2_2530  1
    Z_253_2_1  OBJ       -1.2644043513320066e-01
    Z_253_2_1  constraint1_2532  1
    Z_253_2_1  constraint2_2531  1
    Z_253_2_2  OBJ       -4.7422354272817734e-02
    Z_253_2_2  constraint1_2532  1
    Z_253_2_2  constraint2_2532  1
    Z_253_2_3  OBJ       -7.7006023010007412e-04
    Z_253_2_3  constraint1_2532  1
    Z_253_2_3  constraint2_2533  1
    Z_253_2_4  OBJ       -7.2221553901864155e-01
    Z_253_2_4  constraint1_2532  1
    Z_253_0_0  OBJ       -4.4486925912816031e-04
    Z_253_0_0  constraint1_2530  1
    Z_253_0_0  constraint2_2530  1
    Z_253_0_1  OBJ       -2.0201136289809196e-04
    Z_253_0_1  constraint1_2530  1
    Z_253_0_1  constraint2_2531  1
    Z_253_0_2  OBJ       -5.8738499050709547e-02
    Z_253_0_2  constraint1_2530  1
    Z_253_0_2  constraint2_2532  1
    Z_253_0_3  OBJ       -1.1231735083573526e-03
    Z_253_0_3  constraint1_2530  1
    Z_253_0_3  constraint2_2533  1
    Z_253_0_4  OBJ       -8.3949144681890686e-01
    Z_253_0_4  constraint1_2530  1
    Z_165_0_0  OBJ       -2.0078001107372485e-03
    Z_165_0_0  constraint1_1650  1
    Z_165_0_0  constraint2_1650  1
    Z_165_0_1  OBJ       -1.2556238693428416e-02
    Z_165_0_1  constraint1_1650  1
    Z_165_0_1  constraint2_1651  1
    Z_165_0_2  OBJ       -9.5410201416371604e-02
    Z_165_0_2  constraint1_1650  1
    Z_165_0_2  constraint2_1652  1
    Z_165_0_3  OBJ       -1.3947525106589228e-02
    Z_165_0_3  constraint1_1650  1
    Z_165_0_3  constraint2_1653  1
    Z_165_0_4  OBJ       -7.7607823467287351e-01
    Z_165_0_4  constraint1_1650  1
    Z_202_0_0  OBJ       -3.7375798721504106e-04
    Z_202_0_0  constraint1_2020  1
    Z_202_0_0  constraint2_2020  1
    Z_202_0_1  OBJ       -6.9365608482953561e-04
    Z_202_0_1  constraint1_2020  1
    Z_202_0_1  constraint2_2021  1
    Z_202_0_2  OBJ       -7.9945346234287007e-01
    Z_202_0_2  constraint1_2020  1
    Z_202_0_2  constraint2_2022  1
    Z_202_0_3  OBJ       -2.6128842310543911e-03
    Z_202_0_3  constraint1_2020  1
    Z_202_0_3  constraint2_2023  1
    Z_202_0_4  OBJ       -9.6866239354030950e-02
    Z_202_0_4  constraint1_2020  1
    Z_401_0_0  OBJ       -2.3125797450945953e-03
    Z_401_0_0  constraint1_4010  1
    Z_401_0_0  constraint2_4010  1
    Z_401_0_1  OBJ       -1.9062565339247916e-03
    Z_401_0_1  constraint1_4010  1
    Z_401_0_1  constraint2_4011  1
    Z_401_0_2  OBJ       -8.0249809421994844e-01
    Z_401_0_2  constraint1_4010  1
    Z_401_0_2  constraint2_4012  1
    Z_401_0_3  OBJ       -2.0668521639814561e-03
    Z_401_0_3  constraint1_4010  1
    Z_401_0_3  constraint2_4013  1
    Z_401_0_4  OBJ       -9.1216217337050765e-02
    Z_401_0_4  constraint1_4010  1
    Z_11_0_0  OBJ       -1.7712173763855674e-02
    Z_11_0_0  constraint1_110  1
    Z_11_0_0  constraint2_110  1
    Z_11_0_1  OBJ       -8.1159310313593613e-01
    Z_11_0_1  constraint1_110  1
    Z_11_0_1  constraint2_111  1
    Z_11_0_2  OBJ       -1.0540449716948203e-02
    Z_11_0_2  constraint1_110  1
    Z_11_0_2  constraint2_112  1
    Z_11_0_3  OBJ       -3.0827435265403384e-03
    Z_11_0_3  constraint1_110  1
    Z_11_0_3  constraint2_113  1
    Z_11_0_4  OBJ       -5.7071529856719531e-02
    Z_11_0_4  constraint1_110  1
    Z_474_0_0  OBJ       -9.1154038672382643e-04
    Z_474_0_0  constraint1_4740  1
    Z_474_0_0  constraint2_4740  1
    Z_474_0_1  OBJ       -2.2109083828349908e-03
    Z_474_0_1  constraint1_4740  1
    Z_474_0_1  constraint2_4741  1
    Z_474_0_2  OBJ       -8.5471143835982022e-01
    Z_474_0_2  constraint1_4740  1
    Z_474_0_2  constraint2_4742  1
    Z_474_0_3  OBJ       -8.2489982411465632e-03
    Z_474_0_3  constraint1_4740  1
    Z_474_0_3  constraint2_4743  1
    Z_474_0_4  OBJ       -3.3917114629474374e-02
    Z_474_0_4  constraint1_4740  1
    Z_474_3_0  OBJ       -8.6376805710434462e-02
    Z_474_3_0  constraint1_4743  1
    Z_474_3_0  constraint2_4740  1
    Z_474_3_1  OBJ       -1.6039136441720662e-02
    Z_474_3_1  constraint1_4743  1
    Z_474_3_1  constraint2_4741  1
    Z_474_3_2  OBJ       -2.6304781105129276e-02
    Z_474_3_2  constraint1_4743  1
    Z_474_3_2  constraint2_4742  1
    Z_474_3_3  OBJ       -2.2880194845296045e-01
    Z_474_3_3  constraint1_4743  1
    Z_474_3_3  constraint2_4743  1
    Z_474_3_4  OBJ       -5.4247732828975526e-01
    Z_474_3_4  constraint1_4743  1
    Z_474_2_0  OBJ       -1.0366962545759450e-02
    Z_474_2_0  constraint1_4742  1
    Z_474_2_0  constraint2_4740  1
    Z_474_2_1  OBJ       -7.3956727998542235e-02
    Z_474_2_1  constraint1_4742  1
    Z_474_2_1  constraint2_4741  1
    Z_474_2_2  OBJ       -6.5847877389227311e-03
    Z_474_2_2  constraint1_4742  1
    Z_474_2_2  constraint2_4742  1
    Z_474_2_3  OBJ       -7.8106914808099259e-01
    Z_474_2_3  constraint1_4742  1
    Z_474_2_3  constraint2_4743  1
    Z_474_2_4  OBJ       -2.8022373635783131e-02
    Z_474_2_4  constraint1_4742  1
    Z_242_3_0  OBJ       -4.2058427235294897e-02
    Z_242_3_0  constraint1_2423  1
    Z_242_3_0  constraint2_2420  1
    Z_242_3_1  OBJ       -3.6451603498090929e-02
    Z_242_3_1  constraint1_2423  1
    Z_242_3_1  constraint2_2421  1
    Z_242_3_2  OBJ       -3.5552215934335656e-03
    Z_242_3_2  constraint1_2423  1
    Z_242_3_2  constraint2_2422  1
    Z_242_3_3  OBJ       -7.8616955939432201e-02
    Z_242_3_3  constraint1_2423  1
    Z_242_3_3  constraint2_2423  1
    Z_242_3_4  OBJ       -7.3931779173374845e-01
    Z_242_3_4  constraint1_2423  1
    Z_242_4_0  OBJ       -1.6993695944056544e-04
    Z_242_4_0  constraint1_2424  1
    Z_242_4_0  constraint2_2420  1
    Z_242_4_1  OBJ       -6.9994505011455477e-03
    Z_242_4_1  constraint1_2424  1
    Z_242_4_1  constraint2_2421  1
    Z_242_4_2  OBJ       -2.4853944294868663e-01
    Z_242_4_2  constraint1_2424  1
    Z_242_4_2  constraint2_2422  1
    Z_242_4_3  OBJ       -9.5621233304169569e-04
    Z_242_4_3  constraint1_2424  1
    Z_242_4_3  constraint2_2423  1
    Z_242_4_4  OBJ       -6.4333495725768575e-01
    Z_242_4_4  constraint1_2424  1
    Z_242_2_0  OBJ       -7.9372753853082425e-03
    Z_242_2_0  constraint1_2422  1
    Z_242_2_0  constraint2_2420  1
    Z_242_2_1  OBJ       -5.7596913504860603e-03
    Z_242_2_1  constraint1_2422  1
    Z_242_2_1  constraint2_2421  1
    Z_242_2_2  OBJ       -8.2676683052634644e-03
    Z_242_2_2  constraint1_2422  1
    Z_242_2_2  constraint2_2422  1
    Z_242_2_3  OBJ       -9.5119557062750028e-03
    Z_242_2_3  constraint1_2422  1
    Z_242_2_3  constraint2_2423  1
    Z_242_2_4  OBJ       -8.6852340925266724e-01
    Z_242_2_4  constraint1_2422  1
    Z_242_1_0  OBJ       -7.6781145622058537e-04
    Z_242_1_0  constraint1_2421  1
    Z_242_1_0  constraint2_2420  1
    Z_242_1_1  OBJ       -1.4841159063066903e-03
    Z_242_1_1  constraint1_2421  1
    Z_242_1_1  constraint2_2421  1
    Z_242_1_2  OBJ       -2.7906589801455976e-03
    Z_242_1_2  constraint1_2421  1
    Z_242_1_2  constraint2_2422  1
    Z_242_1_3  OBJ       -6.0883320522358243e-03
    Z_242_1_3  constraint1_2421  1
    Z_242_1_3  constraint2_2423  1
    Z_242_1_4  OBJ       -8.8886908160509137e-01
    Z_242_1_4  constraint1_2421  1
    Z_242_5_0  OBJ       -4.2058427235294897e-02
    Z_242_5_0  constraint1_2425  1
    Z_242_5_0  constraint2_2420  1
    Z_242_5_1  OBJ       -3.6451603498090929e-02
    Z_242_5_1  constraint1_2425  1
    Z_242_5_1  constraint2_2421  1
    Z_242_5_2  OBJ       -3.5552215934335656e-03
    Z_242_5_2  constraint1_2425  1
    Z_242_5_2  constraint2_2422  1
    Z_242_5_3  OBJ       -7.8616955939432201e-02
    Z_242_5_3  constraint1_2425  1
    Z_242_5_3  constraint2_2423  1
    Z_242_5_4  OBJ       -7.3931779173374845e-01
    Z_242_5_4  constraint1_2425  1
    Z_121_0_0  OBJ       -2.3125797450945953e-03
    Z_121_0_0  constraint1_1210  1
    Z_121_0_0  constraint2_1210  1
    Z_121_0_1  OBJ       -1.9062565339247916e-03
    Z_121_0_1  constraint1_1210  1
    Z_121_0_1  constraint2_1211  1
    Z_121_0_2  OBJ       -8.0249809421994844e-01
    Z_121_0_2  constraint1_1210  1
    Z_121_0_2  constraint2_1212  1
    Z_121_0_3  OBJ       -2.0668521639814561e-03
    Z_121_0_3  constraint1_1210  1
    Z_121_0_3  constraint2_1213  1
    Z_121_0_4  OBJ       -9.1216217337050765e-02
    Z_121_0_4  constraint1_1210  1
    Z_121_1_0  OBJ       -6.7209083259020919e-01
    Z_121_1_0  constraint1_1211  1
    Z_121_1_0  constraint2_1210  1
    Z_121_1_1  OBJ       -7.8379805171939876e-02
    Z_121_1_1  constraint1_1211  1
    Z_121_1_1  constraint2_1211  1
    Z_121_1_2  OBJ       -2.2552141430524870e-02
    Z_121_1_2  constraint1_1211  1
    Z_121_1_2  constraint2_1212  1
    Z_121_1_3  OBJ       -7.9893822428346875e-02
    Z_121_1_3  constraint1_1211  1
    Z_121_1_3  constraint2_1213  1
    Z_121_1_4  OBJ       -4.7083398378979326e-02
    Z_121_1_4  constraint1_1211  1
    Z_555_0_0  OBJ       -7.1593816786894868e-03
    Z_555_0_0  constraint1_5550  1
    Z_555_0_0  constraint2_5550  1
    Z_555_0_1  OBJ       -8.4984447240061400e-01
    Z_555_0_1  constraint1_5550  1
    Z_555_0_1  constraint2_5551  1
    Z_555_0_2  OBJ       -6.9351682392824474e-03
    Z_555_0_2  constraint1_5550  1
    Z_555_0_2  constraint2_5552  1
    Z_555_0_3  OBJ       -1.4781111972705907e-02
    Z_555_0_3  constraint1_5550  1
    Z_555_0_3  constraint2_5553  1
    Z_555_0_4  OBJ       -2.1279865708708146e-02
    Z_555_0_4  constraint1_5550  1
    MARKER    'MARKER'                 'INTEND'
RHS
    RHS1      constraint1_1120  1
    RHS1      constraint1_3900  1
    RHS1      constraint1_3902  1
    RHS1      constraint1_3903  1
    RHS1      constraint1_2650  1
    RHS1      constraint1_4962  1
    RHS1      constraint1_4961  1
    RHS1      constraint1_4964  1
    RHS1      constraint1_4963  1
    RHS1      constraint1_2531  1
    RHS1      constraint1_2532  1
    RHS1      constraint1_2530  1
    RHS1      constraint1_1650  1
    RHS1      constraint1_2020  1
    RHS1      constraint1_4010  1
    RHS1      constraint1_110  1
    RHS1      constraint1_4740  1
    RHS1      constraint1_4743  1
    RHS1      constraint1_4742  1
    RHS1      constraint1_2423  1
    RHS1      constraint1_2424  1
    RHS1      constraint1_2422  1
    RHS1      constraint1_2421  1
    RHS1      constraint1_2425  1
    RHS1      constraint1_1210  1
    RHS1      constraint1_1211  1
    RHS1      constraint1_5550  1
    RHS1      constraint2_1120  1
    RHS1      constraint2_1121  1
    RHS1      constraint2_1122  1
    RHS1      constraint2_1123  1
    RHS1      constraint2_3900  1
    RHS1      constraint2_3901  1
    RHS1      constraint2_3902  1
    RHS1      constraint2_3903  1
    RHS1      constraint2_2650  1
    RHS1      constraint2_2651  1
    RHS1      constraint2_2652  1
    RHS1      constraint2_2653  1
    RHS1      constraint2_4960  1
    RHS1      constraint2_4961  1
    RHS1      constraint2_4962  1
    RHS1      constraint2_4963  1
    RHS1      constraint2_2530  1
    RHS1      constraint2_2531  1
    RHS1      constraint2_2532  1
    RHS1      constraint2_2533  1
    RHS1      constraint2_1650  1
    RHS1      constraint2_1651  1
    RHS1      constraint2_1652  1
    RHS1      constraint2_1653  1
    RHS1      constraint2_2020  1
    RHS1      constraint2_2021  1
    RHS1      constraint2_2022  1
    RHS1      constraint2_2023  1
    RHS1      constraint2_1930  1
    RHS1      constraint2_1931  1
    RHS1      constraint2_1932  1
    RHS1      constraint2_1933  1
    RHS1      constraint2_4010  1
    RHS1      constraint2_4011  1
    RHS1      constraint2_4012  1
    RHS1      constraint2_4013  1
    RHS1      constraint2_110  1
    RHS1      constraint2_111  1
    RHS1      constraint2_112  1
    RHS1      constraint2_113  1
    RHS1      constraint2_4740  1
    RHS1      constraint2_4741  1
    RHS1      constraint2_4742  1
    RHS1      constraint2_4743  1
    RHS1      constraint2_2420  1
    RHS1      constraint2_2421  1
    RHS1      constraint2_2422  1
    RHS1      constraint2_2423  1
    RHS1      constraint2_1210  1
    RHS1      constraint2_1211  1
    RHS1      constraint2_1212  1
    RHS1      constraint2_1213  1
    RHS1      constraint2_5550  1
    RHS1      constraint2_5551  1
    RHS1      constraint2_5552  1
    RHS1      constraint2_5553  1
    RHS1      constraint2_220  1
    RHS1      constraint2_221  1
    RHS1      constraint2_222  1
    RHS1      constraint2_223  1
BOUNDS
 UP BND1      Z_112_0_0  1
 UP BND1      Z_112_0_1  1
 UP BND1      Z_112_0_2  1
 UP BND1      Z_112_0_3  1
 UP BND1      Z_112_0_4  1
 UP BND1      Z_390_0_0  1
 UP BND1      Z_390_0_1  1
 UP BND1      Z_390_0_2  1
 UP BND1      Z_390_0_3  1
 UP BND1      Z_390_0_4  1
 UP BND1      Z_390_2_0  1
 UP BND1      Z_390_2_1  1
 UP BND1      Z_390_2_2  1
 UP BND1      Z_390_2_3  1
 UP BND1      Z_390_2_4  1
 UP BND1      Z_390_3_0  1
 UP BND1      Z_390_3_1  1
 UP BND1      Z_390_3_2  1
 UP BND1      Z_390_3_3  1
 UP BND1      Z_390_3_4  1
 UP BND1      Z_265_0_0  1
 UP BND1      Z_265_0_1  1
 UP BND1      Z_265_0_2  1
 UP BND1      Z_265_0_3  1
 UP BND1      Z_265_0_4  1
 UP BND1      Z_496_2_0  1
 UP BND1      Z_496_2_1  1
 UP BND1      Z_496_2_2  1
 UP BND1      Z_496_2_3  1
 UP BND1      Z_496_2_4  1
 UP BND1      Z_496_1_0  1
 UP BND1      Z_496_1_1  1
 UP BND1      Z_496_1_2  1
 UP BND1      Z_496_1_3  1
 UP BND1      Z_496_1_4  1
 UP BND1      Z_496_4_0  1
 UP BND1      Z_496_4_1  1
 UP BND1      Z_496_4_2  1
 UP BND1      Z_496_4_3  1
 UP BND1      Z_496_4_4  1
 UP BND1      Z_496_3_0  1
 UP BND1      Z_496_3_1  1
 UP BND1      Z_496_3_2  1
 UP BND1      Z_496_3_3  1
 UP BND1      Z_496_3_4  1
 UP BND1      Z_253_1_0  1
 UP BND1      Z_253_1_1  1
 UP BND1      Z_253_1_2  1
 UP BND1      Z_253_1_3  1
 UP BND1      Z_253_1_4  1
 UP BND1      Z_253_2_0  1
 UP BND1      Z_253_2_1  1
 UP BND1      Z_253_2_2  1
 UP BND1      Z_253_2_3  1
 UP BND1      Z_253_2_4  1
 UP BND1      Z_253_0_0  1
 UP BND1      Z_253_0_1  1
 UP BND1      Z_253_0_2  1
 UP BND1      Z_253_0_3  1
 UP BND1      Z_253_0_4  1
 UP BND1      Z_165_0_0  1
 UP BND1      Z_165_0_1  1
 UP BND1      Z_165_0_2  1
 UP BND1      Z_165_0_3  1
 UP BND1      Z_165_0_4  1
 UP BND1      Z_202_0_0  1
 UP BND1      Z_202_0_1  1
 UP BND1      Z_202_0_2  1
 UP BND1      Z_202_0_3  1
 UP BND1      Z_202_0_4  1
 UP BND1      Z_401_0_0  1
 UP BND1      Z_401_0_1  1
 UP BND1      Z_401_0_2  1
 UP BND1      Z_401_0_3  1
 UP BND1      Z_401_0_4  1
 UP BND1      Z_11_0_0  1
 UP BND1      Z_11_0_1  1
 UP BND1      Z_11_0_2  1
 UP BND1      Z_11_0_3  1
 UP BND1      Z_11_0_4  1
 UP BND1      Z_474_0_0  1
 UP BND1      Z_474_0_1  1
 UP BND1      Z_474_0_2  1
 UP BND1      Z_474_0_3  1
 UP BND1      Z_474_0_4  1
 UP BND1      Z_474_3_0  1
 UP BND1      Z_474_3_1  1
 UP BND1      Z_474_3_2  1
 UP BND1      Z_474_3_3  1
 UP BND1      Z_474_3_4  1
 UP BND1      Z_474_2_0  1
 UP BND1      Z_474_2_1  1
 UP BND1      Z_474_2_2  1
 UP BND1      Z_474_2_3  1
 UP BND1      Z_474_2_4  1
 UP BND1      Z_242_3_0  1
 UP BND1      Z_242_3_1  1
 UP BND1      Z_242_3_2  1
 UP BND1      Z_242_3_3  1
 UP BND1      Z_242_3_4  1
 UP BND1      Z_242_4_0  1
 UP BND1      Z_242_4_1  1
 UP BND1      Z_242_4_2  1
 UP BND1      Z_242_4_3  1
 UP BND1      Z_242_4_4  1
 UP BND1      Z_242_2_0  1
 UP BND1      Z_242_2_1  1
 UP BND1      Z_242_2_2  1
 UP BND1      Z_242_2_3  1
 UP BND1      Z_242_2_4  1
 UP BND1      Z_242_1_0  1
 UP BND1      Z_242_1_1  1
 UP BND1      Z_242_1_2  1
 UP BND1      Z_242_1_3  1
 UP BND1      Z_242_1_4  1
 UP BND1      Z_242_5_0  1
 UP BND1      Z_242_5_1  1
 UP BND1      Z_242_5_2  1
 UP BND1      Z_242_5_3  1
 UP BND1      Z_242_5_4  1
 UP BND1      Z_121_0_0  1
 UP BND1      Z_121_0_1  1
 UP BND1      Z_121_0_2  1
 UP BND1      Z_121_0_3  1
 UP BND1      Z_121_0_4  1
 UP BND1      Z_121_1_0  1
 UP BND1      Z_121_1_1  1
 UP BND1      Z_121_1_2  1
 UP BND1      Z_121_1_3  1
 UP BND1      Z_121_1_4  1
 UP BND1      Z_555_0_0  1
 UP BND1      Z_555_0_1  1
 UP BND1      Z_555_0_2  1
 UP BND1      Z_555_0_3  1
 UP BND1      Z_555_0_4  1
QUADOBJ
    Z_112_0_0  Z_202_0_0  -1.9999999999999996e-01
    Z_112_0_0  Z_401_0_0  -7.7160493827160490e-04
    Z_112_0_0  Z_474_0_0  -1.9999999999999996e-01
    Z_112_0_0  Z_121_0_0  -7.7160493827160490e-04
    Z_112_0_1  Z_202_0_1  -1.9999999999999996e-01
    Z_112_0_1  Z_401_0_1  -7.7160493827160490e-04
    Z_112_0_1  Z_474_0_1  -1.9999999999999996e-01
    Z_112_0_1  Z_121_0_1  -7.7160493827160490e-04
    Z_112_0_2  Z_202_0_2  -1.9999999999999996e-01
    Z_112_0_2  Z_401_0_2  -7.7160493827160490e-04
    Z_112_0_2  Z_474_0_2  -1.9999999999999996e-01
    Z_112_0_2  Z_121_0_2  -7.7160493827160490e-04
    Z_112_0_3  Z_202_0_3  -1.9999999999999996e-01
    Z_112_0_3  Z_401_0_3  -7.7160493827160490e-04
    Z_112_0_3  Z_474_0_3  -1.9999999999999996e-01
    Z_112_0_3  Z_121_0_3  -7.7160493827160490e-04
    Z_112_0_4  Z_202_0_4  -1.9999999999999996e-01
    Z_112_0_4  Z_401_0_4  -7.7160493827160490e-04
    Z_112_0_4  Z_474_0_4  -1.9999999999999996e-01
    Z_112_0_4  Z_121_0_4  -7.7160493827160490e-04
    Z_390_0_0  Z_401_0_0  -1.2755102040816322e-06
    Z_390_0_0  Z_242_3_0  -3.3396205965966623e-05
    Z_390_0_0  Z_242_5_0  -6.2636823616206080e-05
    Z_390_0_0  Z_121_0_0  -1.2755102040816322e-06
    Z_390_0_1  Z_401_0_1  -1.2755102040816322e-06
    Z_390_0_1  Z_242_3_1  -3.3396205965966623e-05
    Z_390_0_1  Z_242_5_1  -6.2636823616206080e-05
    Z_390_0_1  Z_121_0_1  -1.2755102040816322e-06
    Z_390_0_2  Z_401_0_2  -1.2755102040816322e-06
    Z_390_0_2  Z_242_3_2  -3.3396205965966623e-05
    Z_390_0_2  Z_242_5_2  -6.2636823616206080e-05
    Z_390_0_2  Z_121_0_2  -1.2755102040816322e-06
    Z_390_0_3  Z_401_0_3  -1.2755102040816322e-06
    Z_390_0_3  Z_242_3_3  -3.3396205965966623e-05
    Z_390_0_3  Z_242_5_3  -6.2636823616206080e-05
    Z_390_0_3  Z_121_0_3  -1.2755102040816322e-06
    Z_390_0_4  Z_401_0_4  -1.2755102040816322e-06
    Z_390_0_4  Z_242_3_4  -3.3396205965966623e-05
    Z_390_0_4  Z_242_5_4  -6.2636823616206080e-05
    Z_390_0_4  Z_121_0_4  -1.2755102040816322e-06
    Z_390_2_0  Z_496_4_0  -2.7469395767716885e-05
    Z_390_2_0  Z_253_2_0  -4.2081005167081619e-05
    Z_390_2_0  Z_165_0_0  -9.4407642668896202e-02
    Z_390_2_0  Z_474_3_0  -9.4407642668896202e-02
    Z_390_2_0  Z_474_2_0  -9.4407642668896202e-02
    Z_390_2_0  Z_242_3_0  -1.0987758307086754e-04
    Z_390_2_0  Z_242_5_0  -1.0987758307086754e-04
    Z_390_2_0  Z_555_0_0  -2.6398089332775931e-02
    Z_390_2_1  Z_496_4_1  -2.7469395767716885e-05
    Z_390_2_1  Z_253_2_1  -4.2081005167081619e-05
    Z_390_2_1  Z_165_0_1  -9.4407642668896202e-02
    Z_390_2_1  Z_474_3_1  -9.4407642668896202e-02
    Z_390_2_1  Z_474_2_1  -9.4407642668896202e-02
    Z_390_2_1  Z_242_3_1  -1.0987758307086754e-04
    Z_390_2_1  Z_242_5_1  -1.0987758307086754e-04
    Z_390_2_1  Z_555_0_1  -2.6398089332775931e-02
    Z_390_2_2  Z_496_4_2  -2.7469395767716885e-05
    Z_390_2_2  Z_253_2_2  -4.2081005167081619e-05
    Z_390_2_2  Z_165_0_2  -9.4407642668896202e-02
    Z_390_2_2  Z_474_3_2  -9.4407642668896202e-02
    Z_390_2_2  Z_474_2_2  -9.4407642668896202e-02
    Z_390_2_2  Z_242_3_2  -1.0987758307086754e-04
    Z_390_2_2  Z_242_5_2  -1.0987758307086754e-04
    Z_390_2_2  Z_555_0_2  -2.6398089332775931e-02
    Z_390_2_3  Z_496_4_3  -2.7469395767716885e-05
    Z_390_2_3  Z_253_2_3  -4.2081005167081619e-05
    Z_390_2_3  Z_165_0_3  -9.4407642668896202e-02
    Z_390_2_3  Z_474_3_3  -9.4407642668896202e-02
    Z_390_2_3  Z_474_2_3  -9.4407642668896202e-02
    Z_390_2_3  Z_242_3_3  -1.0987758307086754e-04
    Z_390_2_3  Z_242_5_3  -1.0987758307086754e-04
    Z_390_2_3  Z_555_0_3  -2.6398089332775931e-02
    Z_390_2_4  Z_496_4_4  -2.7469395767716885e-05
    Z_390_2_4  Z_253_2_4  -4.2081005167081619e-05
    Z_390_2_4  Z_165_0_4  -9.4407642668896202e-02
    Z_390_2_4  Z_474_3_4  -9.4407642668896202e-02
    Z_390_2_4  Z_474_2_4  -9.4407642668896202e-02
    Z_390_2_4  Z_242_3_4  -1.0987758307086754e-04
    Z_390_2_4  Z_242_5_4  -1.0987758307086754e-04
    Z_390_2_4  Z_555_0_4  -2.6398089332775931e-02
    Z_390_3_0  Z_253_2_0  -4.2081005167081619e-05
    Z_390_3_0  Z_165_0_0  -1.0281657226620486e-01
    Z_390_3_0  Z_474_3_0  -1.0281657226620486e-01
    Z_390_3_0  Z_474_2_0  -1.0281657226620486e-01
    Z_390_3_0  Z_242_3_0  -1.9064698319336993e-05
    Z_390_3_0  Z_242_5_0  -3.5757120049547760e-05
    Z_390_3_1  Z_253_2_1  -4.2081005167081619e-05
    Z_390_3_1  Z_165_0_1  -1.0281657226620486e-01
    Z_390_3_1  Z_474_3_1  -1.0281657226620486e-01
    Z_390_3_1  Z_474_2_1  -1.0281657226620486e-01
    Z_390_3_1  Z_242_3_1  -1.9064698319336993e-05
    Z_390_3_1  Z_242_5_1  -3.5757120049547760e-05
    Z_390_3_2  Z_253_2_2  -4.2081005167081619e-05
    Z_390_3_2  Z_165_0_2  -1.0281657226620486e-01
    Z_390_3_2  Z_474_3_2  -1.0281657226620486e-01
    Z_390_3_2  Z_474_2_2  -1.0281657226620486e-01
    Z_390_3_2  Z_242_3_2  -1.9064698319336993e-05
    Z_390_3_2  Z_242_5_2  -3.5757120049547760e-05
    Z_390_3_3  Z_253_2_3  -4.2081005167081619e-05
    Z_390_3_3  Z_165_0_3  -1.0281657226620486e-01
    Z_390_3_3  Z_474_3_3  -1.0281657226620486e-01
    Z_390_3_3  Z_474_2_3  -1.0281657226620486e-01
    Z_390_3_3  Z_242_3_3  -1.9064698319336993e-05
    Z_390_3_3  Z_242_5_3  -3.5757120049547760e-05
    Z_390_3_4  Z_253_2_4  -4.2081005167081619e-05
    Z_390_3_4  Z_165_0_4  -1.0281657226620486e-01
    Z_390_3_4  Z_474_3_4  -1.0281657226620486e-01
    Z_390_3_4  Z_474_2_4  -1.0281657226620486e-01
    Z_390_3_4  Z_242_3_4  -1.9064698319336993e-05
    Z_390_3_4  Z_242_5_4  -3.5757120049547760e-05
    Z_496_2_0  Z_253_2_0  -1.9999999999999996e-01
    Z_496_2_0  Z_242_3_0  -6.1769622554651866e-03
    Z_496_2_0  Z_242_2_0  -1.9999999999999996e-01
    Z_496_2_0  Z_242_5_0  -1.1585306896053476e-02
    Z_496_2_1  Z_253_2_1  -1.9999999999999996e-01
    Z_496_2_1  Z_242_3_1  -6.1769622554651866e-03
    Z_496_2_1  Z_242_2_1  -1.9999999999999996e-01
    Z_496_2_1  Z_242_5_1  -1.1585306896053476e-02
    Z_496_2_2  Z_253_2_2  -1.9999999999999996e-01
    Z_496_2_2  Z_242_3_2  -6.1769622554651866e-03
    Z_496_2_2  Z_242_2_2  -1.9999999999999996e-01
    Z_496_2_2  Z_242_5_2  -1.1585306896053476e-02
    Z_496_2_3  Z_253_2_3  -1.9999999999999996e-01
    Z_496_2_3  Z_242_3_3  -6.1769622554651866e-03
    Z_496_2_3  Z_242_2_3  -1.9999999999999996e-01
    Z_496_2_3  Z_242_5_3  -1.1585306896053476e-02
    Z_496_2_4  Z_253_2_4  -1.9999999999999996e-01
    Z_496_2_4  Z_242_3_4  -6.1769622554651866e-03
    Z_496_2_4  Z_242_2_4  -1.9999999999999996e-01
    Z_496_2_4  Z_242_5_4  -1.1585306896053476e-02
    Z_496_1_0  Z_242_1_0  -1.9999999999999996e-01
    Z_496_1_1  Z_242_1_1  -1.9999999999999996e-01
    Z_496_1_2  Z_242_1_2  -1.9999999999999996e-01
    Z_496_1_3  Z_242_1_3  -1.9999999999999996e-01
    Z_496_1_4  Z_242_1_4  -1.9999999999999996e-01
    Z_253_2_0  Z_401_0_0  -1.3840830449826987e-03
    Z_253_2_0  Z_474_2_0  -4.2081005167081619e-05
    Z_253_2_0  Z_242_3_0  -2.0688687641531932e-02
    Z_253_2_0  Z_242_2_0  -1.9999999999999996e-01
    Z_253_2_0  Z_242_5_0  -1.8520504202788519e-02
    Z_253_2_0  Z_121_0_0  -1.3840830449826987e-03
    Z_253_2_0  Z_121_1_0  -2.2222222222222218e-04
    Z_253_2_1  Z_401_0_1  -1.3840830449826987e-03
    Z_253_2_1  Z_474_2_1  -4.2081005167081619e-05
    Z_253_2_1  Z_242_3_1  -2.0688687641531932e-02
    Z_253_2_1  Z_242_2_1  -1.9999999999999996e-01
    Z_253_2_1  Z_242_5_1  -1.8520504202788519e-02
    Z_253_2_1  Z_121_0_1  -1.3840830449826987e-03
    Z_253_2_1  Z_121_1_1  -2.2222222222222218e-04
    Z_253_2_2  Z_401_0_2  -1.3840830449826987e-03
    Z_253_2_2  Z_474_2_2  -4.2081005167081619e-05
    Z_253_2_2  Z_242_3_2  -2.0688687641531932e-02
    Z_253_2_2  Z_242_2_2  -1.9999999999999996e-01
    Z_253_2_2  Z_242_5_2  -1.8520504202788519e-02
    Z_253_2_2  Z_121_0_2  -1.3840830449826987e-03
    Z_253_2_2  Z_121_1_2  -2.2222222222222218e-04
    Z_253_2_3  Z_401_0_3  -1.3840830449826987e-03
    Z_253_2_3  Z_474_2_3  -4.2081005167081619e-05
    Z_253_2_3  Z_242_3_3  -2.0688687641531932e-02
    Z_253_2_3  Z_242_2_3  -1.9999999999999996e-01
    Z_253_2_3  Z_242_5_3  -1.8520504202788519e-02
    Z_253_2_3  Z_121_0_3  -1.3840830449826987e-03
    Z_253_2_3  Z_121_1_3  -2.2222222222222218e-04
    Z_253_2_4  Z_401_0_4  -1.3840830449826987e-03
    Z_253_2_4  Z_474_2_4  -4.2081005167081619e-05
    Z_253_2_4  Z_242_3_4  -2.0688687641531932e-02
    Z_253_2_4  Z_242_2_4  -1.9999999999999996e-01
    Z_253_2_4  Z_242_5_4  -1.8520504202788519e-02
    Z_253_2_4  Z_121_0_4  -1.3840830449826987e-03
    Z_253_2_4  Z_121_1_4  -2.2222222222222218e-04
    Z_165_0_0  Z_474_3_0  -1.9999999999999996e-01
    Z_165_0_0  Z_474_2_0  -7.6037864558242643e-02
    Z_165_0_1  Z_474_3_1  -1.9999999999999996e-01
    Z_165_0_1  Z_474_2_1  -7.6037864558242643e-02
    Z_165_0_2  Z_474_3_2  -1.9999999999999996e-01
    Z_165_0_2  Z_474_2_2  -7.6037864558242643e-02
    Z_165_0_3  Z_474_3_3  -1.9999999999999996e-01
    Z_165_0_3  Z_474_2_3  -7.6037864558242643e-02
    Z_165_0_4  Z_474_3_4  -1.9999999999999996e-01
    Z_165_0_4  Z_474_2_4  -7.6037864558242643e-02
    Z_202_0_0  Z_401_0_0  -7.7160493827160490e-04
    Z_202_0_0  Z_474_0_0  -1.9999999999999996e-01
    Z_202_0_0  Z_121_0_0  -7.7160493827160490e-04
    Z_202_0_1  Z_401_0_1  -7.7160493827160490e-04
    Z_202_0_1  Z_474_0_1  -1.9999999999999996e-01
    Z_202_0_1  Z_121_0_1  -7.7160493827160490e-04
    Z_202_0_2  Z_401_0_2  -7.7160493827160490e-04
    Z_202_0_2  Z_474_0_2  -1.9999999999999996e-01
    Z_202_0_2  Z_121_0_2  -7.7160493827160490e-04
    Z_202_0_3  Z_401_0_3  -7.7160493827160490e-04
    Z_202_0_3  Z_474_0_3  -1.9999999999999996e-01
    Z_202_0_3  Z_121_0_3  -7.7160493827160490e-04
    Z_202_0_4  Z_401_0_4  -7.7160493827160490e-04
    Z_202_0_4  Z_474_0_4  -1.9999999999999996e-01
    Z_202_0_4  Z_121_0_4  -7.7160493827160490e-04
    Z_401_0_0  Z_474_0_0  -7.7160493827160490e-04
    Z_401_0_0  Z_242_3_0  -1.7158228487403293e-04
    Z_401_0_0  Z_242_5_0  -3.2181408044592988e-04
    Z_401_0_0  Z_121_0_0  -1.9999999999999996e-01
    Z_401_0_1  Z_474_0_1  -7.7160493827160490e-04
    Z_401_0_1  Z_242_3_1  -1.7158228487403293e-04
    Z_401_0_1  Z_242_5_1  -3.2181408044592988e-04
    Z_401_0_1  Z_121_0_1  -1.9999999999999996e-01
    Z_401_0_2  Z_474_0_2  -7.7160493827160490e-04
    Z_401_0_2  Z_242_3_2  -1.7158228487403293e-04
    Z_401_0_2  Z_242_5_2  -3.2181408044592988e-04
    Z_401_0_2  Z_121_0_2  -1.9999999999999996e-01
    Z_401_0_3  Z_474_0_3  -7.7160493827160490e-04
    Z_401_0_3  Z_242_3_3  -1.7158228487403293e-04
    Z_401_0_3  Z_242_5_3  -3.2181408044592988e-04
    Z_401_0_3  Z_121_0_3  -1.9999999999999996e-01
    Z_401_0_4  Z_474_0_4  -7.7160493827160490e-04
    Z_401_0_4  Z_242_3_4  -1.7158228487403293e-04
    Z_401_0_4  Z_242_5_4  -3.2181408044592988e-04
    Z_401_0_4  Z_121_0_4  -1.9999999999999996e-01
    Z_474_0_0  Z_121_0_0  -7.7160493827160490e-04
    Z_474_0_1  Z_121_0_1  -7.7160493827160490e-04
    Z_474_0_2  Z_121_0_2  -7.7160493827160490e-04
    Z_474_0_3  Z_121_0_3  -7.7160493827160490e-04
    Z_474_0_4  Z_121_0_4  -7.7160493827160490e-04
    Z_474_2_0  Z_242_3_0  -1.9064698319336993e-05
    Z_474_2_0  Z_242_5_0  -3.5757120049547760e-05
    Z_474_2_1  Z_242_3_1  -1.9064698319336993e-05
    Z_474_2_1  Z_242_5_1  -3.5757120049547760e-05
    Z_474_2_2  Z_242_3_2  -1.9064698319336993e-05
    Z_474_2_2  Z_242_5_2  -3.5757120049547760e-05
    Z_474_2_3  Z_242_3_3  -1.9064698319336993e-05
    Z_474_2_3  Z_242_5_3  -3.5757120049547760e-05
    Z_474_2_4  Z_242_3_4  -1.9064698319336993e-05
    Z_474_2_4  Z_242_5_4  -3.5757120049547760e-05
    Z_242_3_0  Z_121_0_0  -1.7158228487403293e-04
    Z_242_3_0  Z_555_0_0  -2.7073224379923753e-03
    Z_242_3_1  Z_121_0_1  -1.7158228487403293e-04
    Z_242_3_1  Z_555_0_1  -2.7073224379923753e-03
    Z_242_3_2  Z_121_0_2  -1.7158228487403293e-04
    Z_242_3_2  Z_555_0_2  -2.7073224379923753e-03
    Z_242_3_3  Z_121_0_3  -1.7158228487403293e-04
    Z_242_3_3  Z_555_0_3  -2.7073224379923753e-03
    Z_242_3_4  Z_121_0_4  -1.7158228487403293e-04
    Z_242_3_4  Z_555_0_4  -2.7073224379923753e-03
    Z_242_5_0  Z_121_0_0  -3.2181408044592988e-04
    Z_242_5_0  Z_555_0_0  -5.0777647674570860e-03
    Z_242_5_1  Z_121_0_1  -3.2181408044592988e-04
    Z_242_5_1  Z_555_0_1  -5.0777647674570860e-03
    Z_242_5_2  Z_121_0_2  -3.2181408044592988e-04
    Z_242_5_2  Z_555_0_2  -5.0777647674570860e-03
    Z_242_5_3  Z_121_0_3  -3.2181408044592988e-04
    Z_242_5_3  Z_555_0_3  -5.0777647674570860e-03
    Z_242_5_4  Z_121_0_4  -3.2181408044592988e-04
    Z_242_5_4  Z_555_0_4  -5.0777647674570860e-03
ENDATA
